85 9 12 3 77 99 10 15 58 29 26 17 7 38 20 84 70 94 74 43 6 36 63 19 32 92 49 91 33 42 57 81 30 37 2 45 60 27 82 75 98 5 93 65 48 47 23 90 40 73 97 51 52 39 66 1 95 13 4 54 0 72 86 87 88 83 34 24 69 28 25 22 89 80 64 56 67 53 68 8 41 96 55 79 71 31 50 62 44 16 61 21 59 78 35 11 18 46 14 76 

